COMUNI = {
	san_giustino,
	citta_di_castello,
	narni,
	corciano,
	todi,
	assisi,
	spoleto,
	orvieto,
	bastia_umbra,
	perugia,
	magione,
	amelia,
	marsciano,
	foligno,
	umbertide,
	gualdo_tardino,
	terni,
	gubbio,
	castiglione_del_lago,
};

NUMERO_COMUNI = 19;

ABITANTI_PER_COMUNE = [11, 38, 17, 21, 15, 27, 36, 19, 21, 161, 14, 11, 18, 55, 16, 14, 106, 30, 15];

STRADE_TRA_COMUNI = [|
	false, true, false, false, false, false, false, false, false, false, false, false, false, false, false, false, false, false, false |
	true, false, false, false, false, false, false, false, false, false, false, false, false, false, true, false, false, false, false |
	false, false, false, false, false, false, false, false, false, false, false, true, false, false, false, false, true, false, false |
	false, false, false, false, false, false, false, false, false, true, true, false, false, false, false, false, false, false, false |
	false, false, false, false, false, false, false, true, false, false, false, true, true, false, false, false, false, false, false |
	false, false, false, false, false, false, false, false, true, false, false, false, false, true, false, false, false, false, false |
	false, false, false, false, false, false, false, false, false, false, false, false, false, false, false, false, true, false, false |
	false, false, false, false, true, false, false, false, false, false, false, false, false, false, false, false, false, false, false |
	false, false, false, false, false, true, false, false, false, true, false, false, false, false, false, false, false, false, false |
	false, false, false, true, false, false, false, false, true, false, false, false, true, false, true, false, false, false, false |
	false, false, false, true, false, false, false, false, false, false, false, false, false, false, false, false, false, false, true |
	false, false, true, false, true, false, false, false, false, false, false, false, false, false, false, false, false, false, false |
	false, false, false, false, true, false, false, false, false, true, false, false, false, false, false, false, false, false, false |
	false, false, false, false, false, true, false, false, false, false, false, false, false, false, false, false, false, false, false |
	false, true, false, false, false, false, false, false, false, true, false, false, false, false, false, false, false, true, false |
	false, false, false, false, false, false, false, false, false, false, false, false, false, false, false, false, false, true, false |
	false, false, true, false, false, false, true, false, false, false, false, false, false, false, false, false, false, false, false |
	false, false, false, false, false, false, false, false, false, false, false, false, false, false, true, true, false, false, false |
	false, false, false, false, false, false, false, false, false, false, true, false, false, false, false, false, false, false, false |
|];

RICHIESTE = [|
	12, 7, 3, 1, 13 |
	14, 1, 20, 26, 20 |
	5, 3, 1, 2, 33 |
	4, 3, 12, 11, 0 |
	6, 6, 15, 0, 25 |
	13, 7, 12, 5, 15 |
	69, 1, 1, 4, 3 |
	4, 14, 4, 8, 23 |
	6, 29, 15, 1, 17 |
	1, 8, 16, 8, 12 |
	5, 0, 18, 1, 0 |
	11, 16, 10, 9, 0 |
	4, 9, 6, 6, 10 |
	5, 62, 9, 0, 3 |
	19, 55, 11, 5, 0 |
	4, 6, 5, 2, 26 |
	0, 1, 2, 4, 22 |
	7, 5, 2, 25, 4 |
	8, 4, 11, 0, 3 |
|];
